param p := 
0 0
1 0
2 0
3 1
4 0
5 1
6 0
7 1
8 0
9 1
10 0
11 1
12 0
13 1
14 0
15 1
16 0
17 1
18 0
19 1
20 0
21 1
22 0
23 1
;

param G_c :=
0        49608.891225284948
1        50000.000000005806
2        45327.578437050339
3        25002.510520105159
4        2.5105201051589532
;


param G_d :=
0        -2.4509038034053736
1        -25002.450903803401
2        -45327.578371649826
3        -50000.000000005828
4        -49997.482018608542
;